
 102   30
  10   10   10   10   10   10   10   10   10   10   10   10   10   10   10   10   10   10   10   10   10   10   10   10   10   10   10   10   10   10

   0   0   0   0   0   0   0   0   0   0   0   0   0   0   0   0   0   0   0   0   0   0   0   0   0   0   0   0   0   0   0  26 2 3 4 5 6 7 8 9 10 12 13 14 15 16 17 18 19 20 21 22 24 25 26 28 30 31 
   8   0   0   0   0   0   2   0   0   0   0   0   0   0   0   0   0   0   0   2   0   0   0   0   0   0   0   0   0   1   0  11 68 66 65 61 60 57 45 43 42 40 11 
   4   0   0   0   0   0   0   0   0   0   0   0   0   0   0   0   0   0   0   0   0   0   1   0   2   0   0   0   0   0   0  14 100 68 66 63 62 61 58 56 53 47 43 40 36 23 
   2   0   6   3   0   0   0   0   0   0   0   0   3   0   0   0   0   0   0   0   0   0   0   0   5   0   0   0   0   0   0  17 101 87 74 66 65 64 63 61 60 59 53 51 49 47 44 37 34 
   9   0   0   2   1   0   0   0   0   0   0   0   0   0   0   0   0   0   0   0   0   0   0   0   0   0   0   0   0   0   0  18 101 91 90 72 68 66 64 63 56 55 54 52 50 47 46 43 39 38 
   2   0   0   0   8   0   0   0   0   0   0   0   6   0   0   0   0   0   0   0   0   0   0   0   0   0   1   0   1   0   0  13 99 98 95 92 90 74 65 61 56 50 46 34 32 
   1   0   0   0   0   0   0   1   0   2   0   0   0   0   0   0   0   0   0   0   0   0   0   0   0   0   0   0   0   0   0  10 101 100 65 64 59 49 47 46 35 27 
   8   0   0   0   0   0   0   8   0   0   0   0   0   0   0   0   0   1   0   0   0   1   0   0   0   0   0   0   0   0   0   9 92 71 65 56 53 48 45 41 32 
   2   0   0   6   8   0   5   0   0   0   4   0   0   0   2   0   0   4   0   0   0   0   0   0   0   0   0   0   6   0   0  21 101 100 99 98 97 96 91 90 72 68 67 65 64 63 62 59 57 55 54 48 47 
   1   0   0   0   0   0   9   5   0   0   0   0   0   1   0   0   0   0   1   0   0   0   0   0   0   1   4   5   9   0   0   7 100 99 97 51 48 33 29 
   3   0   4   0   0   1  10   0   0   0   0   0   0   0   4   0   0   0   4   0   0   0   0   0   5   0   0   4   6   0   0  14 99 97 96 95 90 64 63 56 55 52 51 50 48 46 
   1   0   0   0   0   0   0   0   0   0   2   0   0   0   0   0   0   0   0   4   0   0   0   0   0   0   0   0   0   0   1  14 99 98 97 94 87 68 67 62 59 57 56 51 49 47 
  10   0   0   0   0   6   0   0   0   2   0   0   0   0   0   0   0   3   0   0   1   0   0   0   0   0   0   0   0   0   0  19 100 96 92 91 90 89 87 82 73 72 71 67 64 63 60 59 57 55 52 
   7   0   0   0   0   8   0   0   0   0   0   0  10   0   0   0   0   0   0   0   0   0  10   0   0   0   0   0   0   0   0  17 100 97 92 91 89 87 72 71 67 63 62 60 59 58 56 53 52 
   9   0   0   0   0   0   0   0   0  10   0   1   0   0   5   0   0   8   0   0   0   0   0   0   0   0   8   0   0   0   0  19 101 100 97 93 92 91 90 87 83 74 73 72 71 67 62 58 57 52 48 
   3   0   0   0   5   0   0   0   0   0   0   0   0   0   0   0   0   4   0   8   0   0   0   0  10   0   0   0   0   0   0  17 99 97 96 95 94 91 90 89 87 73 70 68 67 62 58 50 47 
   7   0   0   0   0   0   0   0   0   0  10   0  10   0   7   0   0   0   0   0   0   0   0   0   0   0   0   0   0   0   0  16 101 99 94 93 92 90 89 87 74 71 70 63 59 58 56 50 
  10   0   0   0   0   0   0   0   0   4   0   0   0   0   3   0   0   0   0   2   0   0   0   0   0   0   0   0   0   0   0  13 99 94 89 87 82 73 67 64 63 57 55 52 51 
   1   0   0   0   4   0   0   0   0   0   0   2   5   0   0   0   0   0   0   0   8   0   0   0   0   0   0   0   0   0   0  16 101 98 92 91 90 89 87 81 72 71 67 65 63 61 55 50 
   5   0   0   0   4   0   7   0   0   0   3   0   0   0   0   0   0   0   0   0   0   0   0   0   0   9   7   6   0   0   7  16 100 98 96 94 93 90 89 88 86 83 74 73 68 58 52 51 
   2   0   0   0  10   8   0   0   0   0   0   0   0   0   0   0   0   0   0   0   0   0   0   0   0   6   0   4   0   0   9  14 101 97 95 94 91 90 84 71 69 68 66 56 55 54 
   7   0   0   0   8   0   8   0   0   0   0   0   0   0   0   0   0   0   0   0   0   0   0   0   0   0   0   4   0   0   7  14 101 97 95 94 91 90 89 87 86 66 65 62 55 47 
   8   0   0   0   0   0   0   0   0   0   0   0   0   0   0   0   0   0   9   0   0   0   0   0   0   0   0   6   0   0   0  15 101 98 96 94 93 87 83 82 74 69 67 65 64 59 51 
   5   0   0   0   0   0   0   0   0   0   0   0   8   0   9   1   0   0  10   0   0   0   0   0   0   0   7   0   0   5   0   9 94 90 85 81 73 55 54 51 50 
   1   0   0   0   0   0   5   5   0   0   0   0  10   0   7   0   0   0   0   0   0   0   0   1   0   5   0   0   0   0   0   7 98 95 68 63 53 51 46 
   6   0   0   9   0   0   0   0   0   7   0   0   0   0   0   0   0   0   0   0   0   0   0   0   5   0   0   0   0   0   0  15 101 97 96 95 85 82 81 74 72 71 69 66 64 63 54 
   3   0   7   0   0   0   0   0   0   0   0   0   3   0   0   0   0   0   0   0   0   7   0   0   0   0   6   0   0   0   0  14 99 97 90 87 83 82 78 73 72 71 69 68 60 57 
   6   0   0   0   0   0   0   0   0   0   0   0   0   0   3   0   0   0   0   0   0   0   0   0   6   0   0   7   0   0   0  13 100 98 96 90 87 86 81 79 69 67 63 58 51 
   1   0   0   0   0   0   0   6   0   0   0   0   0   0   0   0   0   0   6   0   0   0   3   0   0   0   0   0   0   0   0  11 95 90 89 87 84 72 67 63 62 56 55 
   8   0   0   0   0   0   0   0   0   0   0   0   4   0   0   0   0   0   0   0   0   5   0   0   0   0   0   0   0   9   0  11 100 98 97 91 90 88 73 72 68 63 46 
   5   1   0   0   0   0   0   0   0   0   0   0   6   0   0   0   0   0   3   0   0   0   0   0   0   0   0   0   0   0   0  16 98 96 93 92 91 90 89 88 87 86 83 81 73 69 64 58 
   1   0   7   0   0   0   5   0   0   0   0   0   0   0   9   0   0   0   0   0   0   0   0   0   4   0   7   0   0   0   0  11 101 97 96 94 87 82 80 73 68 63 57 
   3   0   4  10   0   0   0   0   0   0   0   0   0   0   0   0   0   0   0   0   0   0   0   0   0   7   0   4   0   0   0  11 101 94 92 87 78 72 70 69 68 64 55 
   4   0   0   0   0   0   0   0   0   0   0   7   0   0   0   0   0   0   0   0   0   6   0   0  10   0   0   9   0   0   6  10 91 86 84 83 72 71 70 68 62 48 
  10   0   5   0   0   7   0   0   0   0   0   9   0   9   0   0   0   6   0   7   0   0   0   0   0   0   0   0   8   0   0  11 94 92 86 84 82 81 78 73 72 71 55 
   9   0   0   0   0   0   0   0   0   0   0   0   0   0   0   0   0   0   0   0   0   0   0   0   0   0   0   0   0   0   0  11 96 93 90 87 85 83 78 74 72 69 57 
   4   0   0   0   0   0   0   0   1   0   0   0   0   0   8   0   0   0   0   0   0   0   0   5   0   0   0   0   0   0   0   9 99 98 93 91 90 81 72 70 56 
   6   8   0   0   0   0   5   0   6   0   0   0   0   0   0   0   0   0   0   0   0   0   0   0   0   0   0   0   0   0   0  14 98 96 95 89 87 86 85 82 81 79 78 75 70 69 
  10   0   0   0   0   0   0   0   0   0   0   0   0   4   0   0   1   0   0   0   7   0   0   0   8   0   0   0   0   0   4  10 94 89 87 86 85 84 79 75 70 62 
  10   0   0   0   0   0   0   0   0   0   8   5   0   0   0   0   0   0   0   0   0   0   3   8   0   5   0   9   0   0   0  13 99 98 90 89 87 82 81 80 79 78 71 70 69 
   4   0   0   0   0   0   0   0   0   9   0   0   0   0   0   0  10   0   0   0   0   0   4   0   0   0   0   0   0   0   0   7 91 87 82 78 72 69 55 
   7   0   0   0   0   0   0   0   0   0   0   0   0   0   0   0   0   0   0   0   7   0   0   0   0   0   0   0   0   0   0  12 91 88 86 85 84 83 80 78 76 75 73 69 
   5   8   0   0   0   0   0   0   0   0   0   0   0   0   0   0   3   6   0   0   0   6   0   0   0   0   0   0   0   0   0  12 97 95 88 86 85 84 82 81 77 76 75 73 
   2   0   0   0   0   0   0   0   0   0   7   0   3   0   0   0   0   0   6   0   0   0   0   0   0   0   0  10   0   0   0   9 91 90 89 82 81 80 77 71 67 
   3   7   0   0   0   0   0   0   9   0   0   7   0   0   0   6   0   0   0   0   0   5   0   0   0   0   0   0   0   0   0   7 98 95 94 83 82 75 62 
   5   0   0   0   0   0   0   0   0   0   8   0   0   0   0   0   0   8   0   0   0   0  10   0   5   9   0   6   0   0   8   6 89 87 79 76 67 58 
   5   0   0   0   0   0   0   0   0   0   0   0   0   0   0   0  10   0   0   3   0   0   0   0   0   0   7   0   0   0   0   9 92 83 82 81 79 78 75 71 69 
   4   0   3   0   0   0   0   0   0   0   0   0   0   0   0   0   0   0   0   7   0   0   0   0   9   0   0   0   0   0   0   9 89 88 85 81 80 79 76 75 69 
   9   8   0   4   0   0   0   0   0   0   6   0   0   0   0   0   0   0   0   0   5   0  10   0   3   0   0   0   4   0   0   9 96 93 91 90 89 82 78 77 73 
   2   0   0   8   0   0   0   0   0   0   0   0   0   0   0   0   6   0   0   0   0   0   0   0   0   0   0   0   0   0   0   8 100 88 86 83 82 80 79 69 
   6   0  10   0   0   0   0   0   0   0   0   4   0   3   0   0   0   0   0   0   0   0   0   8   0   0   0   6   0   0   0   7 92 91 84 78 72 71 70 
   5   0   0   0   0   0   0   0   7   0   0   0   0   0   0   7   0   0   0   0   0   7   0   0   0   0   0   0   0   0   0   7 85 81 80 79 78 75 69 
   2   7   6   0   0   0   0   0   0   0   0   0   0   0   0   0   0   0   0   0   0   0   0   0   0   0   0   0   0   0   0   6 99 90 82 75 73 70 
   1   4   0   0   0   0   0   0   2   0   0   0   0   0   0   0   0   6   0   9   0   0   0   0   0   0   0   0   0   0   0   7 92 89 87 86 79 78 75 
   5   0   0   0   0   0   4   0   0   0   8   0   4   0   0   0   5   0   0   0   0   0   0   0   0   0   0   0   0   0   0   6 93 88 83 77 75 74 
   7   0   0   0   0   0   0   0   0   7   0   0   0   0   0   0   0  10   0   0   0   0   0   0   0   0   0   0   0   0   0   6 86 83 82 77 75 73 
   2   0   0   0   0   0   0   0   0   0   0   0   0   0   0   0   0   0   0   4   0   0   0   0   0   0   7   0   0   9   0   6 88 86 84 77 75 70 
   2   4   0   0   0   0   0   0   0   8   0   0   0   0   3   0   0   0   0   0   0   0   0   0   0   0   0   0   0   0   0   6 85 84 82 80 78 75 
   1   0   0   0   0   0   0   8   0   0   0   0   0   0   0   0   0   0   0   0   0   0   0   0   0   0   0   0   0   6   0   6 95 86 85 81 79 76 
   3   0   0   0   0   0   0   0   0   0   0   0   0   0   0   0   5   0   0   0   0   0   0   0   0   6   8   0   0   0   0   6 94 93 81 79 76 75 
   3   4   6   0   0   0   0   0   0   0   0   0   7   0   8   0   0   0   0   0   0   0   0   0   0   0   0   0   0   8   0   5 84 83 78 77 76 
   7   0   0   0   0   0   0   0   0   0   0   0   0   0   0   6   0   0   0   0   0   0   0  10   0   0   0   3   0   3   0   4 81 80 78 69 
   8   0   0   0   0   0   0   0   0  10   0   0   0   0   0   0   0   0   0   0   0   0   0   0   0   0   0   7   0   0   0   3 83 78 77 
   6   0   0   0   0   0   0   0   0   0   0   8   0   0   0   0   0   0   9   0   0   0   0   5   0   7   0   0   0   0   0   3 84 79 75 
   9   0   0   0   0   0   0   0   0   0   0   0   0   6   0   0   0   0   0   0   0   0   0   0   6   0   0   9   8   0   0   3 85 84 78 
  10   0   0   0   0   0   0   4   0   0   0  10   0   9   8   0   0   0   0   0   0   0   8   0   0   0   0   0   0   0   0   2 78 70 
  10   0   0   0   0   0   0   0   0   0   0   0   0   0   0   0   0   0   0   0   0   0   0   0   0   0   0   0   0   0   0   2 78 75 
   2   0   0   0   0   0   0   0   0   0   0   7   0   0   0   0   0   9   0   0   0   0   0   5   0   7   0   0   0   0   7   2 85 81 
   3   0   0   0   0   0   0   8   0   6   0   6   0   0   0   0   0   0   0   0   0   0   0   0   0   0   0   0   0   6   0   1 77 
   8   0   9   0   0   0   5   0   0   0   0   4   4   5   0   0   0   0   0   0   0   0   0   0   0   0   0   0   0   0   0   1 76 
   5   0   5   9   0   0   0   0   0   0   0   6   0   5   8   6   0   0   0   0   0   0   0   0   0   0   0   0   0   0   0   1 76 
   5   8   0   0   0   0   0   0   0   0   0   0   0   0   0   0   0   0   0   0   0   0   0   0   0   0   0   0   8   7   0   1 80 
   3   0   0   0   0   0   0   0  10   0   7   0   7  10   0   0   0  10   0  10   0   0   0   0   0   0   0   0   0   0   0   1 79 
   2   0   8   0   0   0   0   0   0   0   0   0   0   0   0   0   0   0   0   0   0   0   4   0   0   0   0   0   0   0   0   1 76 
   7   0   0   6   0   0   8   0   0   0   0   0   0   0   0   0   0   0   0   6   0   0   0   6   0   0   0   0   3   0   0   1 102
   2   0   0   0   0   0   0   0   0   0   0   0   0   0   0   0   0   0   0   9   0   0   0   0   0   0   0   0   0   0   0   1 102
  10   0   0   0   0   0   0   9   6   0   0   0   0   0   0   0   0   0   0   0   0   0   0   0   0   0   0   0   0   0   0   1 102
   5   0   0   0   0   0   0   0   0   0   0   0   0   0   0   0   0   0   0   0   4   0   0   0   0   0   0   0   7   0   5   1 102
   7   0   0   0   0   0   0   0   0   0   0   0   0   8   0   0   0   0   0   0   0   8   0   0   0   0   9   0   0   0   0   1 102
   7   0   0   0   0   0   0   0   0   0   0   0   0   0   7   0   0   8   0   6   0   9   0   0   0   0   7   0   6   0   0   1 102
   9   0   0   0   0   0   0   0   0   0   0   0   6   0   0   0   0   0   0   0   5   0   0   0   0   0   0   0   0   0   0   1 102
   9   0   0   0   0   0   0   0   0   0   0   0   0   0   0   0   0   0   0   0   0   0   0   0  10   5   0   0   0   0   0   1 102
   5   0   0   0   0   0   0   0   0   5   4   7   0   0   0   0   7   0   0   0   6   0   0   0   0   0   0  10   0   0   0   1 102
   5   0   0   0   0   0   0   0   0   0   5   0   0   0   0   0   0   0   0   0   0   0   0   0   0   0   0   0   0   0   6   1 102
   6   0   0   0   0   0   0   0   0   0   0   0   0   0   0   8   0   0   0   0   7   0   0   0   0   7   0   0   0   0   0   1 102
   7   0   0   3   0   5   0   0   0   0   0   0   0   0   0   0   0   0   0   0   0   0   7   0   3   5   0   5   0   0   0   1 102
  10   0   0   0   0   0   6   0   0   0   0   0   0   0   2   0   0   0   0   7   0   0   0   0   0   0   1   0   0   0   0   1 102
   8   0   0   0   0   9   5   0   7   0   0   0   0   0   0   0   0   0   0   0   0   0   0   0   8   0   0   2   0   0   0   1 102
   9   0   5   0   0   6   0   0   0   0   0   0   0   0  10   0   0   0   0   0   0   0  10   0   0   0   6   0   0   0   0   1 102
  10   0   0   0   0   0   0   4   0   0   0   0   0   0   3   8   0   0   0   0   7   0   0   0   0   7   9   0   0   0   0   1 102
   4   0   0   0   0   0   0   0   0   0   0   0   0   0   0   0   0   0   3   0   0   0   0   0   0   7   0   0   0   0   0   1 102
   5   0   0   0   0   0   0   0   0   2   0   0   0   0   0   5   7   0   0   0   0   0   0   7   0   0   0   0   0   0   0   1 102
   2   8   0   0   0   0   0   0   0   0   6   6   0   6   0   0   0   0   0   0   0   6   0   0   0   0   0   0   6   0   0   1 102
   7   0   0   0   0   0   0   6   0   0  10   0   0   6  10   0   0   4   0   0   0   0   2   7   0   0   0   0   0   0   0   1 102
   8   5   0   0   0   0   0   0   0   0   0   7   0   0   0   0   0   0   0   0   0   0   0   0   0   0   6   0   0   0   0   1 102
   5   0   0   0   0   0   0   0   0   0   5   0   0   0   8   7   0   0   0   0   0   0   0   0   0   3   0   0   0   0   0   1 102
   2   0   5   0   0   0   0   4   0   0   0   0   0   0   0   0   0   3   9   0   0   0   0   0   0   0   6   0   0   0   0   1 102
   4   0   6   0   0   4   0  10   0   6   0   0   0   0   0   0   0   0   0   0   0   0   0   0   0   0   0   0   0   0   0   1 102
   7   0   0   0   0   0   0   0   0   0   3   0   0   0   0   0   0   0   0   0   9   0   0   0   3   0   0   0   0   0   0   1 102
   9   0   0   0   0   0   0   0   0   6   0   0   0   0   0   0   0   0   0   0   0   0   0   4   0   0   0   4   0   0   0   1 102
  10   0   0   0   0   0   6   0   0   0   0   0   0   0   2   0   0   0   0   0   0   0   0   0   6   0   2   0   0   0   0   1 102
   0   0   0   0   0   0   0   0   0   0   0   0   0   0   0   0   0   0   0   0   0   0   0   0   0   0   0   0   0   0   0   0 
